50 1150
485 485 776 970 450 582 180 810 540 540 873 291 388 810 810 630 679 360 679 900 873 485 360 485 90 720 720 970 810 540 679 291 360 194 720 180 630 630 180 270 360 360 900 97 97 970 900 194 630 630 
575 575 920 1150 275 690 110 495 330 330 1035 345 460 495 495 385 805 220 805 550 1035 575 220 575 55 440 440 1150 495 330 805 345 220 230 440 110 385 385 110 165 220 220 550 115 115 1150 550 230 385 385 
